benchmark/results/graph__10-1000-0.10-02_11/graph__10-1000-0.10-02_11_QuintonOs_Benders_aux.lp
\ This file has been generated by DOcplex
\ ENCODING=ISO-8859-1
\Problem name: Quinton Bounded Benders_auxiliary_sub

Minimize
 obj: 0.000764192140 pi_nr_a0 + 0.000834167501 pi_nr_a1
      + 0.000878514056 pi_nr_a2 + 0.001379590137 pi_nr_a3
      + 0.000988103666 pi_nr_a4 + 0.001120358515 pi_nr_a5
      + 0.001114649682 pi_nr_a6 + 0.001473063973 pi_nr_a7
      + 0.003326996198 pi_nr_a8 + 0.000877318957 pi_nr_a9 + pi_p_a4_a5
      + pi_p_a9_a5 + pi_p_a2_a5 + pi_p_a8_a7 + pi_p_a4_a7 + pi_p_a6_a7
      + 1278.125000000000 pi_d_a0_a1_proc_1
      + 1260.750000000000 pi_d_a1_a0_proc_1
      + 1278.125000000000 pi_d_a0_a3_proc_1
      + 1260.750000000000 pi_d_a3_a0_proc_1 + 477.375000000000 pi_d_a0_a4_proc_1
      + 475.250000000000 pi_d_a4_a0_proc_1 + 318.125000000000 pi_d_a0_a5_proc_1
      + 317.250000000000 pi_d_a5_a0_proc_1 + 317.250000000000 pi_d_a0_a6_proc_1
      + 318.125000000000 pi_d_a6_a0_proc_1 + 1438.125000000000 pi_d_a0_a7_proc_1
      + 1418 pi_d_a7_a0_proc_1 + 317.375000000000 pi_d_a0_a8_proc_1
      + 318 pi_d_a8_a0_proc_1 + 1278 pi_d_a0_a9_proc_1
      + 1260.875000000000 pi_d_a9_a0_proc_1 + 477.375000000000 pi_d_a1_a2_proc_0
      + 475.250000000000 pi_d_a2_a1_proc_0 + 2221.625000000000 pi_d_a1_a3_proc_1
      + 635.375000000000 pi_d_a1_a3_proc_0 + 2220.750000000000 pi_d_a3_a1_proc_1
      + 634.500000000000 pi_d_a3_a1_proc_0 + 1438.125000000000 pi_d_a1_a4_proc_1
      + 1438.125000000000 pi_d_a1_a4_proc_0 + 1418 pi_d_a4_a1_proc_1
      + 1418 pi_d_a4_a1_proc_0 + 1260.875000000000 pi_d_a1_a5_proc_1
      + 1578.125000000000 pi_d_a1_a5_proc_0 + 1278 pi_d_a5_a1_proc_1
      + 1595.250000000000 pi_d_a5_a1_proc_0 + 1278 pi_d_a1_a6_proc_1
      + 1260.875000000000 pi_d_a6_a1_proc_1
      + 2381.625000000000 pi_d_a1_a7_proc_1 + 478.125000000000 pi_d_a1_a7_proc_0
      + 2378 pi_d_a7_a1_proc_1 + 474.500000000000 pi_d_a7_a1_proc_0
      + 1278 pi_d_a1_a8_proc_1 + 1260.875000000000 pi_d_a8_a1_proc_1
      + 2220.750000000000 pi_d_a1_a9_proc_1 + 634.500000000000 pi_d_a1_a9_proc_0
      + 2221.625000000000 pi_d_a9_a1_proc_1 + 635.375000000000 pi_d_a9_a1_proc_0
      + 475.250000000000 pi_d_a2_a3_proc_0 + 477.375000000000 pi_d_a3_a2_proc_0
      + 1278 pi_d_a2_a4_proc_0 + 1260.875000000000 pi_d_a4_a2_proc_0
      + 1438.125000000000 pi_d_a2_a5_proc_0 + 1418 pi_d_a5_a2_proc_0
      + 318.125000000000 pi_d_a2_a7_proc_0 + 317.250000000000 pi_d_a7_a2_proc_0
      + 474.500000000000 pi_d_a2_a9_proc_0 + 478.125000000000 pi_d_a9_a2_proc_0
      + 1438.125000000000 pi_d_a3_a4_proc_1
      + 1438.125000000000 pi_d_a3_a4_proc_0 + 1418 pi_d_a4_a3_proc_1
      + 1418 pi_d_a4_a3_proc_0 + 1278.125000000000 pi_d_a3_a5_proc_1
      + 1595.375000000000 pi_d_a3_a5_proc_0
      + 1260.750000000000 pi_d_a5_a3_proc_1 + 1578 pi_d_a5_a3_proc_0
      + 1278 pi_d_a3_a6_proc_1 + 1260.875000000000 pi_d_a6_a3_proc_1
      + 2378.750000000000 pi_d_a3_a7_proc_1 + 475.250000000000 pi_d_a3_a7_proc_0
      + 2380.875000000000 pi_d_a7_a3_proc_1 + 477.375000000000 pi_d_a7_a3_proc_0
      + 1278 pi_d_a3_a8_proc_1 + 1260.875000000000 pi_d_a8_a3_proc_1
      + 2220.750000000000 pi_d_a3_a9_proc_1 + 634.500000000000 pi_d_a3_a9_proc_0
      + 2221.625000000000 pi_d_a9_a3_proc_1 + 635.375000000000 pi_d_a9_a3_proc_0
      + 478.125000000000 pi_d_a4_a5_proc_1 + 2381.625000000000 pi_d_a4_a5_proc_0
      + 474.500000000000 pi_d_a5_a4_proc_1 + 2378 pi_d_a5_a4_proc_0
      + 478.125000000000 pi_d_a4_a6_proc_1 + 474.500000000000 pi_d_a6_a4_proc_1
      + 1595.375000000000 pi_d_a4_a7_proc_1
      + 1278.125000000000 pi_d_a4_a7_proc_0 + 1578 pi_d_a7_a4_proc_1
      + 1260.750000000000 pi_d_a7_a4_proc_0 + 478.125000000000 pi_d_a4_a8_proc_1
      + 474.500000000000 pi_d_a8_a4_proc_1 + 1438.125000000000 pi_d_a4_a9_proc_1
      + 1438.125000000000 pi_d_a4_a9_proc_0 + 1418 pi_d_a9_a4_proc_1
      + 1418 pi_d_a9_a4_proc_0 + 317.250000000000 pi_d_a5_a6_proc_1
      + 318.125000000000 pi_d_a6_a5_proc_1 + 1438.125000000000 pi_d_a5_a7_proc_1
      + 1438.125000000000 pi_d_a5_a7_proc_0 + 1418 pi_d_a7_a5_proc_1
      + 1418 pi_d_a7_a5_proc_0 + 317.250000000000 pi_d_a5_a8_proc_1
      + 318.125000000000 pi_d_a8_a5_proc_1 + 1278 pi_d_a5_a9_proc_1
      + 1595.250000000000 pi_d_a5_a9_proc_0
      + 1260.875000000000 pi_d_a9_a5_proc_1
      + 1578.125000000000 pi_d_a9_a5_proc_0
      + 1438.125000000000 pi_d_a6_a7_proc_1 + 1418 pi_d_a7_a6_proc_1
      + 318.125000000000 pi_d_a6_a8_proc_1 + 317.250000000000 pi_d_a8_a6_proc_1
      + 1278 pi_d_a6_a9_proc_1 + 1260.875000000000 pi_d_a9_a6_proc_1
      + 1438.125000000000 pi_d_a7_a8_proc_1 + 1418 pi_d_a8_a7_proc_1
      + 2380.875000000000 pi_d_a7_a9_proc_1 + 477.375000000000 pi_d_a7_a9_proc_0
      + 2378.750000000000 pi_d_a9_a7_proc_1 + 475.250000000000 pi_d_a9_a7_proc_0
      + 1278 pi_d_a8_a9_proc_1 + 1260.875000000000 pi_d_a9_a8_proc_1
      + 0.875000000000 pi_y2_a0_proc_1 + 0.750000000000 pi_y2_a1_proc_0
      + 0.125000000000 pi_y2_a1_proc_1 + 0.875000000000 pi_y2_a2_proc_0
      + 0.750000000000 pi_y2_a3_proc_0 + 0.125000000000 pi_y2_a3_proc_1
      + 0.125000000000 pi_y2_a4_proc_0 + 0.750000000000 pi_y2_a4_proc_1
      + 0.875000000000 pi_y2_a5_proc_1 + 0.875000000000 pi_y2_a6_proc_1
      + 0.875000000000 pi_y2_a7_proc_0 + 0.875000000000 pi_y2_a8_proc_1
      + 0.750000000000 pi_y2_a9_proc_0 + 0.125000000000 pi_y2_a9_proc_1
Subject To
 c1: 0.000873362445 pi_nr_a0 + 0.000965250965 pi_nr_a1 + 0.001004016064 pi_nr_a2
     + 0.001700680272 pi_nr_a3 + 0.001164144354 pi_nr_a4
     + 0.001280409731 pi_nr_a5 + 0.001273885350 pi_nr_a6
     + 0.001683501684 pi_nr_a7 + 0.003802281369 pi_nr_a8
     + 0.001038421599 pi_nr_a9 + pi_p_a4_a5 + pi_p_a9_a5 + pi_p_a2_a5
     + pi_p_a8_a7 + pi_p_a4_a7 + pi_p_a6_a7 + 1281 pi_d_a0_a1_proc_1
     + 1258 pi_d_a1_a0_proc_1 + 1281 pi_d_a0_a3_proc_1 + 1258 pi_d_a3_a0_proc_1
     + pi_d_a4_a0_proc_1 + pi_d_a0_a5_proc_1 + pi_d_a6_a0_proc_1
     + 1281 pi_d_a0_a7_proc_1 + 1258 pi_d_a7_a0_proc_1 + pi_d_a8_a0_proc_1
     + 1281 pi_d_a0_a9_proc_1 + 1258 pi_d_a9_a0_proc_1 + pi_d_a2_a1_proc_0
     + 2539 pi_d_a1_a3_proc_1 + pi_d_a1_a3_proc_0 + 2538 pi_d_a3_a1_proc_1
     + 1281 pi_d_a1_a4_proc_1 + 1281 pi_d_a1_a4_proc_0 + 1258 pi_d_a4_a1_proc_1
     + 1258 pi_d_a4_a1_proc_0 + 1258 pi_d_a1_a5_proc_1 + 1258 pi_d_a1_a5_proc_0
     + 1281 pi_d_a5_a1_proc_1 + 1281 pi_d_a5_a1_proc_0 + 1281 pi_d_a1_a6_proc_1
     + 1258 pi_d_a6_a1_proc_1 + 2539 pi_d_a1_a7_proc_1 + pi_d_a1_a7_proc_0
     + 2538 pi_d_a7_a1_proc_1 + 1281 pi_d_a1_a8_proc_1 + 1258 pi_d_a8_a1_proc_1
     + 2538 pi_d_a1_a9_proc_1 + 2539 pi_d_a9_a1_proc_1 + pi_d_a9_a1_proc_0
     + pi_d_a2_a3_proc_0 + 1281 pi_d_a2_a4_proc_0 + 1258 pi_d_a4_a2_proc_0
     + 1281 pi_d_a2_a5_proc_0 + 1258 pi_d_a5_a2_proc_0 + pi_d_a2_a7_proc_0
     + pi_d_a9_a2_proc_0 + 1281 pi_d_a3_a4_proc_1 + 1281 pi_d_a3_a4_proc_0
     + 1258 pi_d_a4_a3_proc_1 + 1258 pi_d_a4_a3_proc_0 + 1281 pi_d_a3_a5_proc_1
     + 1281 pi_d_a3_a5_proc_0 + 1258 pi_d_a5_a3_proc_1 + 1258 pi_d_a5_a3_proc_0
     + 1281 pi_d_a3_a6_proc_1 + 1258 pi_d_a6_a3_proc_1 + 2539 pi_d_a3_a7_proc_1
     + pi_d_a3_a7_proc_0 + 2538 pi_d_a7_a3_proc_1 + 1281 pi_d_a3_a8_proc_1
     + 1258 pi_d_a8_a3_proc_1 + 2538 pi_d_a3_a9_proc_1 + 2539 pi_d_a9_a3_proc_1
     + pi_d_a9_a3_proc_0 + pi_d_a4_a5_proc_1 + 2539 pi_d_a4_a5_proc_0
     + 2538 pi_d_a5_a4_proc_0 + pi_d_a4_a6_proc_1 + 1281 pi_d_a4_a7_proc_1
     + 1281 pi_d_a4_a7_proc_0 + 1258 pi_d_a7_a4_proc_1 + 1258 pi_d_a7_a4_proc_0
     + pi_d_a4_a8_proc_1 + 1281 pi_d_a4_a9_proc_1 + 1281 pi_d_a4_a9_proc_0
     + 1258 pi_d_a9_a4_proc_1 + 1258 pi_d_a9_a4_proc_0 + pi_d_a6_a5_proc_1
     + 1281 pi_d_a5_a7_proc_1 + 1281 pi_d_a5_a7_proc_0 + 1258 pi_d_a7_a5_proc_1
     + 1258 pi_d_a7_a5_proc_0 + pi_d_a8_a5_proc_1 + 1281 pi_d_a5_a9_proc_1
     + 1281 pi_d_a5_a9_proc_0 + 1258 pi_d_a9_a5_proc_1 + 1258 pi_d_a9_a5_proc_0
     + 1281 pi_d_a6_a7_proc_1 + 1258 pi_d_a7_a6_proc_1 + pi_d_a6_a8_proc_1
     + 1281 pi_d_a6_a9_proc_1 + 1258 pi_d_a9_a6_proc_1 + 1281 pi_d_a7_a8_proc_1
     + 1258 pi_d_a8_a7_proc_1 + 2538 pi_d_a7_a9_proc_1 + 2539 pi_d_a9_a7_proc_1
     + pi_d_a9_a7_proc_0 + 1281 pi_d_a8_a9_proc_1 + 1258 pi_d_a9_a8_proc_1
     + pi_y2_a0_proc_1 + pi_y2_a1_proc_0 + pi_y2_a2_proc_0 + pi_y2_a3_proc_0
     + pi_y2_a4_proc_1 + pi_y2_a5_proc_1 + pi_y2_a6_proc_1 + pi_y2_a7_proc_0
     + pi_y2_a8_proc_1 + pi_y2_a9_proc_0 = 0.000158881474
 c2: pi_nr_a0 + pi_nr_a1 + pi_nr_a2 + pi_nr_a3 + pi_nr_a4 + pi_nr_a5 + pi_nr_a6
     + pi_nr_a7 + pi_nr_a8 + pi_nr_a9 - pi_y1_a0 - pi_y1_a1 - pi_y1_a2
     - pi_y1_a3 - pi_y1_a4 - pi_y1_a5 - pi_y1_a6 - pi_y1_a7 - pi_y1_a8
     - pi_y1_a9 >= 1
 c3: - pi_p_a1_a0 + pi_p_a0_a2 + pi_d_a0_a1_proc_1 - pi_d_a1_a0_proc_1
     + pi_d_a0_a3_proc_1 - pi_d_a3_a0_proc_1 + pi_d_a0_a4_proc_1
     - pi_d_a4_a0_proc_1 + pi_d_a0_a5_proc_1 - pi_d_a5_a0_proc_1
     + pi_d_a0_a6_proc_1 - pi_d_a6_a0_proc_1 + pi_d_a0_a7_proc_1
     - pi_d_a7_a0_proc_1 + pi_d_a0_a8_proc_1 - pi_d_a8_a0_proc_1
     + pi_d_a0_a9_proc_1 - pi_d_a9_a0_proc_1 >= 0
 c4: 1145 pi_p_a0_a2 + 1145 pi_d_a0_a1_proc_1 + 1145 pi_d_a0_a3_proc_1
     + 1145 pi_d_a0_a4_proc_1 + 1145 pi_d_a0_a5_proc_1 + 1145 pi_d_a0_a6_proc_1
     + 1145 pi_d_a0_a7_proc_1 + 1145 pi_d_a0_a8_proc_1 + 1145 pi_d_a0_a9_proc_1
     + pi_y1_a0 + pi_y2_a0_proc_1 >= 0
 c5: pi_p_a1_a0 - pi_p_a3_a1 + pi_p_a1_a8 - pi_d_a0_a1_proc_1
     + pi_d_a1_a0_proc_1 + pi_d_a1_a2_proc_0 - pi_d_a2_a1_proc_0
     + pi_d_a1_a3_proc_1 + pi_d_a1_a3_proc_0 - pi_d_a3_a1_proc_1
     - pi_d_a3_a1_proc_0 + pi_d_a1_a4_proc_1 + pi_d_a1_a4_proc_0
     - pi_d_a4_a1_proc_1 - pi_d_a4_a1_proc_0 + pi_d_a1_a5_proc_1
     + pi_d_a1_a5_proc_0 - pi_d_a5_a1_proc_1 - pi_d_a5_a1_proc_0
     + pi_d_a1_a6_proc_1 - pi_d_a6_a1_proc_1 + pi_d_a1_a7_proc_1
     + pi_d_a1_a7_proc_0 - pi_d_a7_a1_proc_1 - pi_d_a7_a1_proc_0
     + pi_d_a1_a8_proc_1 - pi_d_a8_a1_proc_1 + pi_d_a1_a9_proc_1
     + pi_d_a1_a9_proc_0 - pi_d_a9_a1_proc_1 - pi_d_a9_a1_proc_0 >= 0
 c6: 1036 pi_p_a1_a0 + 1036 pi_p_a1_a8 + 1036 pi_d_a1_a2_proc_0
     + 1036 pi_d_a1_a3_proc_0 + 1036 pi_d_a1_a4_proc_0 + 1036 pi_d_a1_a5_proc_0
     + 1036 pi_d_a1_a7_proc_0 + 1036 pi_d_a1_a9_proc_0 + pi_y1_a1
     + pi_y2_a1_proc_0 >= 0
 c7: 1134 pi_p_a1_a0 + 1134 pi_p_a1_a8 + 1134 pi_d_a1_a0_proc_1
     + 1134 pi_d_a1_a3_proc_1 + 1134 pi_d_a1_a4_proc_1 + 1134 pi_d_a1_a5_proc_1
     + 1134 pi_d_a1_a6_proc_1 + 1134 pi_d_a1_a7_proc_1 + 1134 pi_d_a1_a8_proc_1
     + 1134 pi_d_a1_a9_proc_1 + pi_y1_a1 + pi_y2_a1_proc_1 >= 0
 c8: - pi_p_a0_a2 + pi_p_a2_a4 + pi_p_a2_a6 + pi_p_a2_a5 - pi_d_a1_a2_proc_0
     + pi_d_a2_a1_proc_0 + pi_d_a2_a3_proc_0 - pi_d_a3_a2_proc_0
     + pi_d_a2_a4_proc_0 - pi_d_a4_a2_proc_0 + pi_d_a2_a5_proc_0
     - pi_d_a5_a2_proc_0 + pi_d_a2_a7_proc_0 - pi_d_a7_a2_proc_0
     + pi_d_a2_a9_proc_0 - pi_d_a9_a2_proc_0 >= 0
 c9: 996 pi_p_a2_a4 + 996 pi_p_a2_a6 + 996 pi_p_a2_a5 + 996 pi_d_a2_a1_proc_0
     + 996 pi_d_a2_a3_proc_0 + 996 pi_d_a2_a4_proc_0 + 996 pi_d_a2_a5_proc_0
     + 996 pi_d_a2_a7_proc_0 + 996 pi_d_a2_a9_proc_0 + pi_y1_a2
     + pi_y2_a2_proc_0 >= 0
 c10: pi_p_a3_a1 - pi_p_a5_a3 - pi_p_a7_a3 - pi_d_a0_a3_proc_1
      + pi_d_a3_a0_proc_1 - pi_d_a1_a3_proc_1 - pi_d_a1_a3_proc_0
      + pi_d_a3_a1_proc_1 + pi_d_a3_a1_proc_0 - pi_d_a2_a3_proc_0
      + pi_d_a3_a2_proc_0 + pi_d_a3_a4_proc_1 + pi_d_a3_a4_proc_0
      - pi_d_a4_a3_proc_1 - pi_d_a4_a3_proc_0 + pi_d_a3_a5_proc_1
      + pi_d_a3_a5_proc_0 - pi_d_a5_a3_proc_1 - pi_d_a5_a3_proc_0
      + pi_d_a3_a6_proc_1 - pi_d_a6_a3_proc_1 + pi_d_a3_a7_proc_1
      + pi_d_a3_a7_proc_0 - pi_d_a7_a3_proc_1 - pi_d_a7_a3_proc_0
      + pi_d_a3_a8_proc_1 - pi_d_a8_a3_proc_1 + pi_d_a3_a9_proc_1
      + pi_d_a3_a9_proc_0 - pi_d_a9_a3_proc_1 - pi_d_a9_a3_proc_0 >= 0
 c11: 588 pi_p_a3_a1 + 588 pi_d_a3_a1_proc_0 + 588 pi_d_a3_a2_proc_0
      + 588 pi_d_a3_a4_proc_0 + 588 pi_d_a3_a5_proc_0 + 588 pi_d_a3_a7_proc_0
      + 588 pi_d_a3_a9_proc_0 + pi_y1_a3 + pi_y2_a3_proc_0 >= 0
 c12: 1201 pi_p_a3_a1 + 1201 pi_d_a3_a0_proc_1 + 1201 pi_d_a3_a1_proc_1
      + 1201 pi_d_a3_a4_proc_1 + 1201 pi_d_a3_a5_proc_1 + 1201 pi_d_a3_a6_proc_1
      + 1201 pi_d_a3_a7_proc_1 + 1201 pi_d_a3_a8_proc_1 + 1201 pi_d_a3_a9_proc_1
      + pi_y1_a3 + pi_y2_a3_proc_1 >= 0
 c13: - pi_p_a2_a4 + pi_p_a4_a5 + pi_p_a4_a7 - pi_p_a8_a4 - pi_d_a0_a4_proc_1
      + pi_d_a4_a0_proc_1 - pi_d_a1_a4_proc_1 - pi_d_a1_a4_proc_0
      + pi_d_a4_a1_proc_1 + pi_d_a4_a1_proc_0 - pi_d_a2_a4_proc_0
      + pi_d_a4_a2_proc_0 - pi_d_a3_a4_proc_1 - pi_d_a3_a4_proc_0
      + pi_d_a4_a3_proc_1 + pi_d_a4_a3_proc_0 + pi_d_a4_a5_proc_1
      + pi_d_a4_a5_proc_0 - pi_d_a5_a4_proc_1 - pi_d_a5_a4_proc_0
      + pi_d_a4_a6_proc_1 - pi_d_a6_a4_proc_1 + pi_d_a4_a7_proc_1
      + pi_d_a4_a7_proc_0 - pi_d_a7_a4_proc_1 - pi_d_a7_a4_proc_0
      + pi_d_a4_a8_proc_1 - pi_d_a8_a4_proc_1 + pi_d_a4_a9_proc_1
      + pi_d_a4_a9_proc_0 - pi_d_a9_a4_proc_1 - pi_d_a9_a4_proc_0 >= 0
 c14: 1087 pi_p_a4_a5 + 1087 pi_p_a4_a7 + 1087 pi_d_a4_a1_proc_0
      + 1087 pi_d_a4_a2_proc_0 + 1087 pi_d_a4_a3_proc_0 + 1087 pi_d_a4_a5_proc_0
      + 1087 pi_d_a4_a7_proc_0 + 1087 pi_d_a4_a9_proc_0 + pi_y1_a4
      + pi_y2_a4_proc_0 >= 0
 c15: 859 pi_p_a4_a5 + 859 pi_p_a4_a7 + 859 pi_d_a4_a0_proc_1
      + 859 pi_d_a4_a1_proc_1 + 859 pi_d_a4_a3_proc_1 + 859 pi_d_a4_a5_proc_1
      + 859 pi_d_a4_a6_proc_1 + 859 pi_d_a4_a7_proc_1 + 859 pi_d_a4_a8_proc_1
      + 859 pi_d_a4_a9_proc_1 + pi_y1_a4 + pi_y2_a4_proc_1 >= 0
 c16: pi_p_a5_a3 - pi_p_a4_a5 - pi_p_a9_a5 - pi_p_a2_a5 - pi_d_a0_a5_proc_1
      + pi_d_a5_a0_proc_1 - pi_d_a1_a5_proc_1 - pi_d_a1_a5_proc_0
      + pi_d_a5_a1_proc_1 + pi_d_a5_a1_proc_0 - pi_d_a2_a5_proc_0
      + pi_d_a5_a2_proc_0 - pi_d_a3_a5_proc_1 - pi_d_a3_a5_proc_0
      + pi_d_a5_a3_proc_1 + pi_d_a5_a3_proc_0 - pi_d_a4_a5_proc_1
      - pi_d_a4_a5_proc_0 + pi_d_a5_a4_proc_1 + pi_d_a5_a4_proc_0
      + pi_d_a5_a6_proc_1 - pi_d_a6_a5_proc_1 + pi_d_a5_a7_proc_1
      + pi_d_a5_a7_proc_0 - pi_d_a7_a5_proc_1 - pi_d_a7_a5_proc_0
      + pi_d_a5_a8_proc_1 - pi_d_a8_a5_proc_1 + pi_d_a5_a9_proc_1
      + pi_d_a5_a9_proc_0 - pi_d_a9_a5_proc_1 - pi_d_a9_a5_proc_0 >= 0
 c17: 970 pi_p_a5_a3 + 970 pi_d_a5_a1_proc_0 + 970 pi_d_a5_a2_proc_0
      + 970 pi_d_a5_a3_proc_0 + 970 pi_d_a5_a4_proc_0 + 970 pi_d_a5_a7_proc_0
      + 970 pi_d_a5_a9_proc_0 + pi_y1_a5 + pi_y2_a5_proc_0 >= 0
 c18: 781 pi_p_a5_a3 + 781 pi_d_a5_a0_proc_1 + 781 pi_d_a5_a1_proc_1
      + 781 pi_d_a5_a3_proc_1 + 781 pi_d_a5_a4_proc_1 + 781 pi_d_a5_a6_proc_1
      + 781 pi_d_a5_a7_proc_1 + 781 pi_d_a5_a8_proc_1 + 781 pi_d_a5_a9_proc_1
      + pi_y1_a5 + pi_y2_a5_proc_1 >= 0
 c19: - pi_p_a2_a6 - pi_p_a7_a6 + pi_p_a6_a9 + pi_p_a6_a7 - pi_d_a0_a6_proc_1
      + pi_d_a6_a0_proc_1 - pi_d_a1_a6_proc_1 + pi_d_a6_a1_proc_1
      - pi_d_a3_a6_proc_1 + pi_d_a6_a3_proc_1 - pi_d_a4_a6_proc_1
      + pi_d_a6_a4_proc_1 - pi_d_a5_a6_proc_1 + pi_d_a6_a5_proc_1
      + pi_d_a6_a7_proc_1 - pi_d_a7_a6_proc_1 + pi_d_a6_a8_proc_1
      - pi_d_a8_a6_proc_1 + pi_d_a6_a9_proc_1 - pi_d_a9_a6_proc_1 >= 0
 c20: 785 pi_p_a6_a9 + 785 pi_p_a6_a7 + 785 pi_d_a6_a0_proc_1
      + 785 pi_d_a6_a1_proc_1 + 785 pi_d_a6_a3_proc_1 + 785 pi_d_a6_a4_proc_1
      + 785 pi_d_a6_a5_proc_1 + 785 pi_d_a6_a7_proc_1 + 785 pi_d_a6_a8_proc_1
      + 785 pi_d_a6_a9_proc_1 + pi_y1_a6 + pi_y2_a6_proc_1 >= 0
 c21: pi_p_a7_a6 + pi_p_a7_a3 - pi_p_a8_a7 - pi_p_a4_a7 - pi_p_a6_a7
      - pi_d_a0_a7_proc_1 + pi_d_a7_a0_proc_1 - pi_d_a1_a7_proc_1
      - pi_d_a1_a7_proc_0 + pi_d_a7_a1_proc_1 + pi_d_a7_a1_proc_0
      - pi_d_a2_a7_proc_0 + pi_d_a7_a2_proc_0 - pi_d_a3_a7_proc_1
      - pi_d_a3_a7_proc_0 + pi_d_a7_a3_proc_1 + pi_d_a7_a3_proc_0
      - pi_d_a4_a7_proc_1 - pi_d_a4_a7_proc_0 + pi_d_a7_a4_proc_1
      + pi_d_a7_a4_proc_0 - pi_d_a5_a7_proc_1 - pi_d_a5_a7_proc_0
      + pi_d_a7_a5_proc_1 + pi_d_a7_a5_proc_0 - pi_d_a6_a7_proc_1
      + pi_d_a7_a6_proc_1 + pi_d_a7_a8_proc_1 - pi_d_a8_a7_proc_1
      + pi_d_a7_a9_proc_1 + pi_d_a7_a9_proc_0 - pi_d_a9_a7_proc_1
      - pi_d_a9_a7_proc_0 >= 0
 c22: 594 pi_p_a7_a6 + 594 pi_p_a7_a3 + 594 pi_d_a7_a1_proc_0
      + 594 pi_d_a7_a2_proc_0 + 594 pi_d_a7_a3_proc_0 + 594 pi_d_a7_a4_proc_0
      + 594 pi_d_a7_a5_proc_0 + 594 pi_d_a7_a9_proc_0 + pi_y1_a7
      + pi_y2_a7_proc_0 >= 0
 c23: 1195 pi_p_a7_a6 + 1195 pi_p_a7_a3 + 1195 pi_d_a7_a0_proc_1
      + 1195 pi_d_a7_a1_proc_1 + 1195 pi_d_a7_a3_proc_1 + 1195 pi_d_a7_a4_proc_1
      + 1195 pi_d_a7_a5_proc_1 + 1195 pi_d_a7_a6_proc_1 + 1195 pi_d_a7_a8_proc_1
      + 1195 pi_d_a7_a9_proc_1 + pi_y1_a7 + pi_y2_a7_proc_1 >= 0
 c24: - pi_p_a1_a8 + pi_p_a8_a9 + pi_p_a8_a7 + pi_p_a8_a4 - pi_d_a0_a8_proc_1
      + pi_d_a8_a0_proc_1 - pi_d_a1_a8_proc_1 + pi_d_a8_a1_proc_1
      - pi_d_a3_a8_proc_1 + pi_d_a8_a3_proc_1 - pi_d_a4_a8_proc_1
      + pi_d_a8_a4_proc_1 - pi_d_a5_a8_proc_1 + pi_d_a8_a5_proc_1
      - pi_d_a6_a8_proc_1 + pi_d_a8_a6_proc_1 - pi_d_a7_a8_proc_1
      + pi_d_a8_a7_proc_1 + pi_d_a8_a9_proc_1 - pi_d_a9_a8_proc_1 >= 0
 c25: 263 pi_p_a8_a9 + 263 pi_p_a8_a7 + 263 pi_p_a8_a4 + 263 pi_d_a8_a0_proc_1
      + 263 pi_d_a8_a1_proc_1 + 263 pi_d_a8_a3_proc_1 + 263 pi_d_a8_a4_proc_1
      + 263 pi_d_a8_a5_proc_1 + 263 pi_d_a8_a6_proc_1 + 263 pi_d_a8_a7_proc_1
      + 263 pi_d_a8_a9_proc_1 + pi_y1_a8 + pi_y2_a8_proc_1 >= 0
 c26: - pi_p_a8_a9 + pi_p_a9_a5 - pi_p_a6_a9 - pi_d_a0_a9_proc_1
      + pi_d_a9_a0_proc_1 - pi_d_a1_a9_proc_1 - pi_d_a1_a9_proc_0
      + pi_d_a9_a1_proc_1 + pi_d_a9_a1_proc_0 - pi_d_a2_a9_proc_0
      + pi_d_a9_a2_proc_0 - pi_d_a3_a9_proc_1 - pi_d_a3_a9_proc_0
      + pi_d_a9_a3_proc_1 + pi_d_a9_a3_proc_0 - pi_d_a4_a9_proc_1
      - pi_d_a4_a9_proc_0 + pi_d_a9_a4_proc_1 + pi_d_a9_a4_proc_0
      - pi_d_a5_a9_proc_1 - pi_d_a5_a9_proc_0 + pi_d_a9_a5_proc_1
      + pi_d_a9_a5_proc_0 - pi_d_a6_a9_proc_1 + pi_d_a9_a6_proc_1
      - pi_d_a7_a9_proc_1 - pi_d_a7_a9_proc_0 + pi_d_a9_a7_proc_1
      + pi_d_a9_a7_proc_0 - pi_d_a8_a9_proc_1 + pi_d_a9_a8_proc_1 >= 0
 c27: 963 pi_p_a9_a5 + 963 pi_d_a9_a1_proc_0 + 963 pi_d_a9_a2_proc_0
      + 963 pi_d_a9_a3_proc_0 + 963 pi_d_a9_a4_proc_0 + 963 pi_d_a9_a5_proc_0
      + 963 pi_d_a9_a7_proc_0 + pi_y1_a9 + pi_y2_a9_proc_0 >= 0
 c28: 1269 pi_p_a9_a5 + 1269 pi_d_a9_a0_proc_1 + 1269 pi_d_a9_a1_proc_1
      + 1269 pi_d_a9_a3_proc_1 + 1269 pi_d_a9_a4_proc_1 + 1269 pi_d_a9_a5_proc_1
      + 1269 pi_d_a9_a6_proc_1 + 1269 pi_d_a9_a7_proc_1 + 1269 pi_d_a9_a8_proc_1
      + pi_y1_a9 + pi_y2_a9_proc_1 >= 0

Bounds
       pi_y1_a0 Free
       pi_y1_a1 Free
       pi_y1_a2 Free
       pi_y1_a3 Free
       pi_y1_a4 Free
       pi_y1_a5 Free
       pi_y1_a6 Free
       pi_y1_a7 Free
       pi_y1_a8 Free
       pi_y1_a9 Free
End
